Starting solution of the Linear programming relaxation problem using Primal Simplex

Coin0506I Presolve 123276 (-123205) rows, 2485 (0) columns and 251380 (-246410) elements
Clp0030I 27 infeas 27.694048, obj 930.75998 - mu 0.1522939, its 105, 81 interior
Clp0030I 39 infeas 0.30422035, obj 1315.9404 - mu 0.0018794197, its 105, 196 interior
Clp0030I 50 infeas 0.01561907, obj 1317.0422 - mu 2.3193432e-05, its 105, 358 interior
Clp0030I 60 infeas 0.00015463295, obj 1317.0046 - mu 8.5875832e-07, its 105, 401 interior
Clp1000I sum of infeasibilities 7.46809e-05 - average 6.05803e-10, 2084 fixed columns
Coin0506I Presolve 2528 (-120748) rows, 401 (-2084) columns and 5716 (-245664) elements
Clp0006I 0  Obj 1317.0046 Primal inf 2.3277692e-05 (21) Dual inf 6.0000001e+09 (383)
Clp0029I End of values pass after 401 iterations
Clp0014I Perturbing problem by 0.001% of 1 - largest nonzero change 2.982246e-05 ( 0.001491123%) - largest zero change 2.9576128e-05
Clp0000I Optimal - objective value 1312.6698
Clp0000I Optimal - objective value 1312.6698
Coin0511I After Postsolve, objective 1312.6698, infeasibilities - dual 0 (0), primal 0 (0)
Clp0006I 0  Obj 1312.6698
Clp0000I Optimal - objective value 1312.6698
Clp0000I Optimal - objective value 1312.6698
Clp0000I Optimal - objective value 1312.6698
Coin0511I After Postsolve, objective 1312.6698, infeasibilities - dual 0 (0), primal 0 (0)
Clp0032I Optimal objective 1312.669818 - 0 iterations time 3.312, Presolve 0.23, Idiot 3.05

Starting MIP optimization
Cbc0045I MIPStart provided solution with cost 1534.34
Cbc0012I Integer solution of 1534.339 found by Reduced search after 0 iterations and 0 nodes (0.58 seconds)
Cbc0031I 27 added rows had average density of 207.59259
Cbc0013I At root node, 27 cuts changed objective from 1312.6698 to 1358.8186 in 2 passes
Cbc0014I Cut generator 0 (LazyConstraints) - 2 row cuts average 655.5 elements, 0 column cuts (0 active)  in 0.066 seconds - new frequency is 1
Cbc0014I Cut generator 1 (Probing) - 43 row cuts average 3.0 elements, 0 column cuts (0 active)  in 0.451 seconds - new frequency is 1
Cbc0014I Cut generator 2 (Gomory) - 17 row cuts average 667.8 elements, 0 column cuts (0 active)  in 0.107 seconds - new frequency is 1
Cbc0014I Cut generator 3 (Knapsack) - 0 row cuts average 0.0 elements, 0 column cuts (0 active)  in 0.189 seconds - new frequency is -100
Cbc0014I Cut generator 4 (MixedIntegerRounding2) - 0 row cuts average 0.0 elements, 0 column cuts (0 active)  in 0.079 seconds - new frequency is -100
Cbc0014I Cut generator 6 (TwoMirCuts) - 14 row cuts average 113.7 elements, 0 column cuts (0 active)  in 0.369 seconds - new frequency is 1
Cbc0014I Cut generator 7 (ZeroHalf) - 0 row cuts average 0.0 elements, 0 column cuts (0 active)  in 39.090 seconds - new frequency is -100
Cbc0010I After 1 nodes, 2 on tree, 1534.339 best solution, best possible 1358.8186 (43.19 seconds)
Cbc0010I After 2 nodes, 3 on tree, 1534.339 best solution, best possible 1358.8186 (43.99 seconds)
Cbc0010I After 3 nodes, 4 on tree, 1534.339 best solution, best possible 1358.8186 (44.85 seconds)
Cbc0010I After 5 nodes, 6 on tree, 1534.339 best solution, best possible 1358.8186 (46.31 seconds)
Cbc0010I After 6 nodes, 7 on tree, 1534.339 best solution, best possible 1358.8186 (47.33 seconds)
Cbc0010I After 8 nodes, 8 on tree, 1534.339 best solution, best possible 1358.8186 (48.51 seconds)
Cbc0010I After 10 nodes, 10 on tree, 1534.339 best solution, best possible 1358.8186 (49.39 seconds)
Cbc0010I After 13 nodes, 11 on tree, 1534.339 best solution, best possible 1358.8186 (50.34 seconds)
Cbc0010I After 16 nodes, 13 on tree, 1534.339 best solution, best possible 1358.8186 (51.13 seconds)
Cbc0010I After 20 nodes, 15 on tree, 1534.339 best solution, best possible 1358.8186 (51.96 seconds)
Cbc0010I After 26 nodes, 15 on tree, 1534.339 best solution, best possible 1358.8186 (52.75 seconds)
Cbc0010I After 30 nodes, 17 on tree, 1534.339 best solution, best possible 1358.8186 (53.54 seconds)
Cbc0010I After 37 nodes, 16 on tree, 1534.339 best solution, best possible 1358.8186 (54.28 seconds)
Cbc0010I After 43 nodes, 21 on tree, 1534.339 best solution, best possible 1358.8186 (55.01 seconds)
Cbc0010I After 51 nodes, 21 on tree, 1534.339 best solution, best possible 1358.8186 (55.75 seconds)
Cbc0010I After 57 nodes, 24 on tree, 1534.339 best solution, best possible 1358.8186 (56.61 seconds)
Cbc0010I After 60 nodes, 25 on tree, 1534.339 best solution, best possible 1358.8186 (57.43 seconds)
Cbc0010I After 69 nodes, 25 on tree, 1534.339 best solution, best possible 1358.8186 (58.15 seconds)
Cbc0010I After 75 nodes, 26 on tree, 1534.339 best solution, best possible 1358.8186 (58.88 seconds)
Cbc0010I After 83 nodes, 25 on tree, 1534.339 best solution, best possible 1358.8186 (59.64 seconds)
Cbc0010I After 93 nodes, 27 on tree, 1534.339 best solution, best possible 1358.8186 (60.36 seconds)
Cbc0010I After 104 nodes, 30 on tree, 1534.339 best solution, best possible 1358.8186 (61.11 seconds)
Cbc0010I After 116 nodes, 31 on tree, 1534.339 best solution, best possible 1358.8186 (61.87 seconds)
Cbc0010I After 128 nodes, 26 on tree, 1534.339 best solution, best possible 1358.8186 (62.61 seconds)
Cbc0010I After 136 nodes, 25 on tree, 1534.339 best solution, best possible 1358.8186 (63.35 seconds)
Cbc0010I After 145 nodes, 27 on tree, 1534.339 best solution, best possible 1358.8186 (64.20 seconds)
Cbc0010I After 151 nodes, 29 on tree, 1534.339 best solution, best possible 1358.8186 (64.97 seconds)
Cbc0010I After 161 nodes, 33 on tree, 1534.339 best solution, best possible 1358.8186 (65.71 seconds)
Cbc0010I After 173 nodes, 34 on tree, 1534.339 best solution, best possible 1358.8186 (66.45 seconds)
Cbc0010I After 183 nodes, 38 on tree, 1534.339 best solution, best possible 1358.8186 (67.16 seconds)
Cbc0010I After 197 nodes, 37 on tree, 1534.339 best solution, best possible 1358.8186 (67.90 seconds)
Cbc0010I After 209 nodes, 35 on tree, 1534.339 best solution, best possible 1358.8186 (68.68 seconds)
Cbc0010I After 220 nodes, 35 on tree, 1534.339 best solution, best possible 1358.8186 (69.40 seconds)
Cbc0010I After 233 nodes, 36 on tree, 1534.339 best solution, best possible 1358.8186 (70.20 seconds)
Cbc0010I After 244 nodes, 36 on tree, 1534.339 best solution, best possible 1358.8186 (70.92 seconds)
Cbc0010I After 255 nodes, 37 on tree, 1534.339 best solution, best possible 1358.8186 (71.87 seconds)
Cbc0010I After 264 nodes, 36 on tree, 1534.339 best solution, best possible 1358.8186 (72.61 seconds)
Cbc0010I After 274 nodes, 36 on tree, 1534.339 best solution, best possible 1358.8186 (73.33 seconds)
Cbc0010I After 283 nodes, 38 on tree, 1534.339 best solution, best possible 1358.8186 (74.06 seconds)
Cbc0010I After 295 nodes, 38 on tree, 1534.339 best solution, best possible 1358.8186 (74.93 seconds)
Cbc0010I After 305 nodes, 42 on tree, 1534.339 best solution, best possible 1358.8186 (75.69 seconds)
Cbc0010I After 316 nodes, 43 on tree, 1534.339 best solution, best possible 1358.8186 (76.54 seconds)
Cbc0010I After 328 nodes, 42 on tree, 1534.339 best solution, best possible 1358.8186 (77.33 seconds)
Cbc0010I After 337 nodes, 43 on tree, 1534.339 best solution, best possible 1358.8186 (78.08 seconds)
Cbc0010I After 349 nodes, 42 on tree, 1534.339 best solution, best possible 1358.8186 (78.86 seconds)
Cbc0010I After 357 nodes, 44 on tree, 1534.339 best solution, best possible 1358.8186 (79.58 seconds)
Cbc0010I After 372 nodes, 45 on tree, 1534.339 best solution, best possible 1358.8186 (80.33 seconds)
Cbc0010I After 381 nodes, 44 on tree, 1534.339 best solution, best possible 1358.8186 (81.04 seconds)
Cbc0010I After 394 nodes, 44 on tree, 1534.339 best solution, best possible 1358.8186 (81.83 seconds)
Cbc0010I After 407 nodes, 42 on tree, 1534.339 best solution, best possible 1358.8186 (82.65 seconds)
Cbc0010I After 418 nodes, 41 on tree, 1534.339 best solution, best possible 1358.8186 (83.39 seconds)
Cbc0010I After 426 nodes, 40 on tree, 1534.339 best solution, best possible 1358.8186 (84.09 seconds)
Cbc0010I After 438 nodes, 41 on tree, 1534.339 best solution, best possible 1358.8186 (84.86 seconds)
Cbc0010I After 448 nodes, 41 on tree, 1534.339 best solution, best possible 1358.8186 (85.62 seconds)
Cbc0010I After 461 nodes, 40 on tree, 1534.339 best solution, best possible 1358.8186 (86.44 seconds)
Cbc0010I After 467 nodes, 42 on tree, 1534.339 best solution, best possible 1358.8186 (87.15 seconds)
Cbc0010I After 480 nodes, 41 on tree, 1534.339 best solution, best possible 1358.8186 (87.87 seconds)
Cbc0010I After 490 nodes, 44 on tree, 1534.339 best solution, best possible 1358.8186 (88.65 seconds)
Cbc0010I After 499 nodes, 44 on tree, 1534.339 best solution, best possible 1358.8186 (89.51 seconds)
Cbc0010I After 512 nodes, 42 on tree, 1534.339 best solution, best possible 1358.8186 (90.26 seconds)
Cbc0010I After 522 nodes, 42 on tree, 1534.339 best solution, best possible 1358.8186 (91.05 seconds)
Cbc0010I After 534 nodes, 39 on tree, 1534.339 best solution, best possible 1358.8186 (91.75 seconds)
Cbc0010I After 546 nodes, 43 on tree, 1534.339 best solution, best possible 1358.8186 (92.55 seconds)
Cbc0010I After 555 nodes, 42 on tree, 1534.339 best solution, best possible 1358.8186 (93.31 seconds)
Cbc0010I After 565 nodes, 40 on tree, 1534.339 best solution, best possible 1358.8186 (94.09 seconds)
Cbc0010I After 570 nodes, 44 on tree, 1534.339 best solution, best possible 1358.8186 (94.92 seconds)
Cbc0010I After 577 nodes, 48 on tree, 1534.339 best solution, best possible 1358.8186 (95.67 seconds)
Cbc0010I After 584 nodes, 51 on tree, 1534.339 best solution, best possible 1358.8186 (96.48 seconds)
Cbc0004I Integer solution of 1514.259 found after 25542 iterations and 591 nodes (97.30 seconds)
Cbc0010I After 591 nodes, 32 on tree, 1514.259 best solution, best possible 1358.8186 (97.31 seconds)
Cbc0010I After 596 nodes, 33 on tree, 1514.259 best solution, best possible 1358.8186 (98.02 seconds)
Cbc0010I After 603 nodes, 33 on tree, 1514.259 best solution, best possible 1358.8186 (98.79 seconds)
Cbc0010I After 610 nodes, 34 on tree, 1514.259 best solution, best possible 1358.8186 (99.52 seconds)
Cbc0010I After 621 nodes, 38 on tree, 1514.259 best solution, best possible 1358.8186 (100.26 seconds)
Cbc0010I After 631 nodes, 40 on tree, 1514.259 best solution, best possible 1358.8186 (101.11 seconds)
Cbc0010I After 638 nodes, 41 on tree, 1514.259 best solution, best possible 1358.8186 (101.85 seconds)
Cbc0010I After 646 nodes, 43 on tree, 1514.259 best solution, best possible 1358.8186 (102.57 seconds)
Cbc0010I After 654 nodes, 45 on tree, 1514.259 best solution, best possible 1358.8186 (103.39 seconds)
Cbc0004I Integer solution of 1507.2509 found after 29245 iterations and 656 nodes (103.70 seconds)
Cbc0010I After 661 nodes, 40 on tree, 1507.2509 best solution, best possible 1358.8186 (104.12 seconds)
Cbc0010I After 671 nodes, 41 on tree, 1507.2509 best solution, best possible 1358.8186 (104.96 seconds)
Cbc0004I Integer solution of 1500.771 found after 30568 iterations and 678 nodes (105.65 seconds)
Cbc0010I After 678 nodes, 37 on tree, 1500.771 best solution, best possible 1358.8186 (105.66 seconds)
Cbc0010I After 683 nodes, 40 on tree, 1500.771 best solution, best possible 1358.8186 (106.43 seconds)
Cbc0010I After 692 nodes, 44 on tree, 1500.771 best solution, best possible 1358.8186 (107.20 seconds)
Cbc0010I After 704 nodes, 44 on tree, 1500.771 best solution, best possible 1358.8186 (107.91 seconds)
Cbc0010I After 711 nodes, 45 on tree, 1500.771 best solution, best possible 1358.8186 (108.97 seconds)
Cbc0010I After 715 nodes, 47 on tree, 1500.771 best solution, best possible 1358.8186 (109.72 seconds)
Cbc0010I After 719 nodes, 49 on tree, 1500.771 best solution, best possible 1358.8186 (110.45 seconds)
Cbc0010I After 723 nodes, 51 on tree, 1500.771 best solution, best possible 1358.8186 (111.18 seconds)
Cbc0010I After 728 nodes, 54 on tree, 1500.771 best solution, best possible 1358.8186 (111.96 seconds)
Cbc0010I After 732 nodes, 56 on tree, 1500.771 best solution, best possible 1358.8186 (112.91 seconds)
Cbc0010I After 739 nodes, 59 on tree, 1500.771 best solution, best possible 1358.8186 (113.74 seconds)
Cbc0010I After 746 nodes, 62 on tree, 1500.771 best solution, best possible 1358.8186 (114.46 seconds)
Cbc0010I After 754 nodes, 66 on tree, 1500.771 best solution, best possible 1358.8186 (115.22 seconds)
Cbc0010I After 763 nodes, 70 on tree, 1500.771 best solution, best possible 1358.8186 (115.94 seconds)
Cbc0010I After 773 nodes, 74 on tree, 1500.771 best solution, best possible 1358.8186 (116.71 seconds)
Cbc0010I After 781 nodes, 76 on tree, 1500.771 best solution, best possible 1358.8186 (117.42 seconds)
Cbc0010I After 790 nodes, 76 on tree, 1500.771 best solution, best possible 1358.8186 (118.22 seconds)
Cbc0010I After 797 nodes, 80 on tree, 1500.771 best solution, best possible 1358.8186 (119.01 seconds)
Cbc0010I After 805 nodes, 84 on tree, 1500.771 best solution, best possible 1358.8186 (119.83 seconds)
Cbc0010I After 813 nodes, 88 on tree, 1500.771 best solution, best possible 1358.8186 (120.73 seconds)
Cbc0010I After 819 nodes, 90 on tree, 1500.771 best solution, best possible 1358.8186 (121.44 seconds)
Cbc0010I After 827 nodes, 95 on tree, 1500.771 best solution, best possible 1358.8186 (122.19 seconds)
Cbc0010I After 836 nodes, 98 on tree, 1500.771 best solution, best possible 1358.8186 (122.91 seconds)
Cbc0010I After 840 nodes, 99 on tree, 1500.771 best solution, best possible 1358.8186 (123.72 seconds)
Cbc0010I After 846 nodes, 101 on tree, 1500.771 best solution, best possible 1358.8186 (124.70 seconds)
Cbc0010I After 851 nodes, 103 on tree, 1500.771 best solution, best possible 1358.8186 (125.43 seconds)
Cbc0010I After 859 nodes, 104 on tree, 1500.771 best solution, best possible 1358.8186 (126.14 seconds)
Cbc0010I After 867 nodes, 108 on tree, 1500.771 best solution, best possible 1358.8186 (126.94 seconds)
Cbc0010I After 872 nodes, 110 on tree, 1500.771 best solution, best possible 1358.8186 (127.70 seconds)
Cbc0010I After 878 nodes, 113 on tree, 1500.771 best solution, best possible 1358.8186 (128.47 seconds)
Cbc0010I After 884 nodes, 117 on tree, 1500.771 best solution, best possible 1358.8186 (129.22 seconds)
Cbc0010I After 891 nodes, 120 on tree, 1500.771 best solution, best possible 1358.8186 (130.00 seconds)
Cbc0010I After 897 nodes, 121 on tree, 1500.771 best solution, best possible 1358.8186 (130.71 seconds)
Cbc0010I After 906 nodes, 124 on tree, 1500.771 best solution, best possible 1358.8186 (131.47 seconds)
Cbc0010I After 914 nodes, 124 on tree, 1500.771 best solution, best possible 1358.8186 (132.18 seconds)
Cbc0010I After 921 nodes, 127 on tree, 1500.771 best solution, best possible 1358.8186 (132.89 seconds)
Cbc0010I After 932 nodes, 129 on tree, 1500.771 best solution, best possible 1358.8186 (133.65 seconds)
Cbc0004I Integer solution of 1472.8156 found after 46191 iterations and 941 nodes (134.40 seconds)
Cbc0010I After 941 nodes, 75 on tree, 1472.8156 best solution, best possible 1358.8186 (134.41 seconds)
Cbc0010I After 951 nodes, 79 on tree, 1472.8156 best solution, best possible 1358.8186 (135.13 seconds)
Cbc0010I After 962 nodes, 79 on tree, 1472.8156 best solution, best possible 1358.8186 (135.83 seconds)
Cbc0010I After 968 nodes, 81 on tree, 1472.8156 best solution, best possible 1358.8186 (136.56 seconds)
Cbc0010I After 974 nodes, 84 on tree, 1472.8156 best solution, best possible 1358.8186 (137.32 seconds)
Cbc0010I After 983 nodes, 87 on tree, 1472.8156 best solution, best possible 1358.8186 (138.03 seconds)
Cbc0010I After 994 nodes, 90 on tree, 1472.8156 best solution, best possible 1358.8186 (138.77 seconds)
Cbc0010I After 1002 nodes, 93 on tree, 1472.8156 best solution, best possible 1358.8186 (139.77 seconds)
Cbc0010I After 1011 nodes, 91 on tree, 1472.8156 best solution, best possible 1358.8186 (140.77 seconds)
Cbc0010I After 1016 nodes, 93 on tree, 1472.8156 best solution, best possible 1358.8186 (141.49 seconds)
Cbc0010I After 1025 nodes, 89 on tree, 1472.8156 best solution, best possible 1358.8186 (142.26 seconds)
Cbc0010I After 1033 nodes, 90 on tree, 1472.8156 best solution, best possible 1358.8186 (142.97 seconds)
Cbc0010I After 1041 nodes, 94 on tree, 1472.8156 best solution, best possible 1358.8186 (143.75 seconds)
Cbc0010I After 1048 nodes, 94 on tree, 1472.8156 best solution, best possible 1358.8186 (144.46 seconds)
Cbc0010I After 1056 nodes, 93 on tree, 1472.8156 best solution, best possible 1358.8186 (145.33 seconds)
Cbc0010I After 1067 nodes, 90 on tree, 1472.8156 best solution, best possible 1358.8186 (146.09 seconds)
Cbc0010I After 1077 nodes, 89 on tree, 1472.8156 best solution, best possible 1358.8186 (146.81 seconds)
Cbc0010I After 1084 nodes, 90 on tree, 1472.8156 best solution, best possible 1358.8186 (147.63 seconds)
Cbc0010I After 1092 nodes, 88 on tree, 1472.8156 best solution, best possible 1358.8186 (148.53 seconds)
Cbc0010I After 1101 nodes, 86 on tree, 1472.8156 best solution, best possible 1358.8186 (149.26 seconds)
Cbc0010I After 1108 nodes, 86 on tree, 1472.8156 best solution, best possible 1358.8186 (150.00 seconds)
Cbc0010I After 1114 nodes, 92 on tree, 1472.8156 best solution, best possible 1358.8186 (150.86 seconds)
Cbc0010I After 1127 nodes, 87 on tree, 1472.8156 best solution, best possible 1358.8186 (151.78 seconds)
Cbc0010I After 1137 nodes, 85 on tree, 1472.8156 best solution, best possible 1358.8186 (152.66 seconds)
Cbc0010I After 1145 nodes, 85 on tree, 1472.8156 best solution, best possible 1358.8186 (153.46 seconds)
Cbc0010I After 1153 nodes, 86 on tree, 1472.8156 best solution, best possible 1358.8186 (154.20 seconds)
Cbc0010I After 1165 nodes, 86 on tree, 1472.8156 best solution, best possible 1358.8186 (154.94 seconds)
Cbc0004I Integer solution of 1465.2272 found after 57300 iterations and 1172 nodes (155.59 seconds)
Cbc0010I After 1173 nodes, 65 on tree, 1465.2272 best solution, best possible 1358.8186 (155.92 seconds)
Cbc0010I After 1181 nodes, 65 on tree, 1465.2272 best solution, best possible 1358.8186 (156.79 seconds)
Cbc0010I After 1188 nodes, 68 on tree, 1465.2272 best solution, best possible 1358.8186 (157.67 seconds)
Cbc0010I After 1196 nodes, 70 on tree, 1465.2272 best solution, best possible 1358.8186 (158.39 seconds)
Cbc0004I Integer solution of 1460.3999 found after 58400 iterations and 1203 nodes (159.37 seconds)
Cbc0010I After 1203 nodes, 59 on tree, 1460.3999 best solution, best possible 1358.8186 (159.38 seconds)
Cbc0010I After 1213 nodes, 57 on tree, 1460.3999 best solution, best possible 1358.8186 (160.10 seconds)
Cbc0010I After 1219 nodes, 60 on tree, 1460.3999 best solution, best possible 1358.8186 (160.94 seconds)
Cbc0010I After 1224 nodes, 61 on tree, 1460.3999 best solution, best possible 1358.8186 (161.67 seconds)
Cbc0010I After 1230 nodes, 61 on tree, 1460.3999 best solution, best possible 1358.8186 (162.39 seconds)
Cbc0010I After 1237 nodes, 63 on tree, 1460.3999 best solution, best possible 1358.8186 (163.19 seconds)
Cbc0010I After 1247 nodes, 61 on tree, 1460.3999 best solution, best possible 1358.8186 (163.91 seconds)
Cbc0010I After 1254 nodes, 61 on tree, 1460.3999 best solution, best possible 1358.8186 (164.66 seconds)
Cbc0010I After 1264 nodes, 61 on tree, 1460.3999 best solution, best possible 1358.8186 (165.41 seconds)
Cbc0010I After 1276 nodes, 62 on tree, 1460.3999 best solution, best possible 1358.8186 (166.14 seconds)
Cbc0010I After 1281 nodes, 62 on tree, 1460.3999 best solution, best possible 1358.8186 (167.08 seconds)
Cbc0010I After 1286 nodes, 63 on tree, 1460.3999 best solution, best possible 1358.8186 (167.83 seconds)
Cbc0010I After 1292 nodes, 64 on tree, 1460.3999 best solution, best possible 1358.8186 (168.55 seconds)
Cbc0010I After 1299 nodes, 66 on tree, 1460.3999 best solution, best possible 1358.8186 (169.38 seconds)
Cbc0010I After 1304 nodes, 66 on tree, 1460.3999 best solution, best possible 1358.8186 (170.20 seconds)
Cbc0010I After 1310 nodes, 68 on tree, 1460.3999 best solution, best possible 1358.8186 (170.96 seconds)
Cbc0010I After 1320 nodes, 68 on tree, 1460.3999 best solution, best possible 1358.8186 (171.67 seconds)
Cbc0010I After 1332 nodes, 68 on tree, 1460.3999 best solution, best possible 1358.8186 (172.38 seconds)
Cbc0010I After 1340 nodes, 68 on tree, 1460.3999 best solution, best possible 1358.8186 (173.21 seconds)
Cbc0010I After 1348 nodes, 70 on tree, 1460.3999 best solution, best possible 1358.8186 (173.96 seconds)
Cbc0010I After 1355 nodes, 71 on tree, 1460.3999 best solution, best possible 1358.8186 (174.72 seconds)
Cbc0004I Integer solution of 1456.5386 found after 64738 iterations and 1359 nodes (175.41 seconds)
Cbc0010I After 1360 nodes, 57 on tree, 1456.5386 best solution, best possible 1358.8186 (175.44 seconds)
Cbc0010I After 1367 nodes, 57 on tree, 1456.5386 best solution, best possible 1358.8186 (176.23 seconds)
Cbc0010I After 1377 nodes, 55 on tree, 1456.5386 best solution, best possible 1358.8186 (177.11 seconds)
Cbc0010I After 1383 nodes, 56 on tree, 1456.5386 best solution, best possible 1358.8186 (177.81 seconds)
Cbc0010I After 1388 nodes, 56 on tree, 1456.5386 best solution, best possible 1358.8186 (178.55 seconds)
Cbc0010I After 1392 nodes, 59 on tree, 1456.5386 best solution, best possible 1358.8186 (179.38 seconds)
Cbc0010I After 1399 nodes, 58 on tree, 1456.5386 best solution, best possible 1358.8186 (180.11 seconds)
Cbc0010I After 1402 nodes, 59 on tree, 1456.5386 best solution, best possible 1358.8186 (180.88 seconds)
Cbc0010I After 1408 nodes, 61 on tree, 1456.5386 best solution, best possible 1358.8186 (181.67 seconds)
Cbc0010I After 1416 nodes, 59 on tree, 1456.5386 best solution, best possible 1358.8186 (182.39 seconds)
Cbc0010I After 1421 nodes, 62 on tree, 1456.5386 best solution, best possible 1358.8186 (183.10 seconds)
Cbc0010I After 1427 nodes, 62 on tree, 1456.5386 best solution, best possible 1358.8186 (183.86 seconds)
Cbc0010I After 1432 nodes, 63 on tree, 1456.5386 best solution, best possible 1358.8186 (184.61 seconds)
Cbc0010I After 1441 nodes, 61 on tree, 1456.5386 best solution, best possible 1358.8186 (185.33 seconds)
Cbc0010I After 1449 nodes, 61 on tree, 1456.5386 best solution, best possible 1358.8186 (186.07 seconds)
Cbc0010I After 1457 nodes, 62 on tree, 1456.5386 best solution, best possible 1358.8186 (186.87 seconds)
Cbc0010I After 1469 nodes, 60 on tree, 1456.5386 best solution, best possible 1358.8186 (187.57 seconds)
Cbc0010I After 1476 nodes, 60 on tree, 1456.5386 best solution, best possible 1358.8186 (188.39 seconds)
Cbc0010I After 1481 nodes, 62 on tree, 1456.5386 best solution, best possible 1358.8186 (189.09 seconds)
Cbc0010I After 1486 nodes, 63 on tree, 1456.5386 best solution, best possible 1358.8186 (189.80 seconds)
Cbc0010I After 1492 nodes, 63 on tree, 1456.5386 best solution, best possible 1358.8186 (190.62 seconds)
Cbc0010I After 1500 nodes, 63 on tree, 1456.5386 best solution, best possible 1358.8186 (191.39 seconds)
Cbc0010I After 1511 nodes, 61 on tree, 1456.5386 best solution, best possible 1358.8186 (192.16 seconds)
Cbc0010I After 1518 nodes, 59 on tree, 1456.5386 best solution, best possible 1358.8186 (192.87 seconds)
Cbc0010I After 1527 nodes, 59 on tree, 1456.5386 best solution, best possible 1358.8186 (193.71 seconds)
Cbc0010I After 1539 nodes, 56 on tree, 1456.5386 best solution, best possible 1358.8186 (194.51 seconds)
Cbc0010I After 1544 nodes, 59 on tree, 1456.5386 best solution, best possible 1358.8186 (195.32 seconds)
Cbc0010I After 1557 nodes, 55 on tree, 1456.5386 best solution, best possible 1358.8186 (196.03 seconds)
Cbc0010I After 1565 nodes, 54 on tree, 1456.5386 best solution, best possible 1358.8186 (196.79 seconds)
Cbc0010I After 1573 nodes, 53 on tree, 1456.5386 best solution, best possible 1358.8186 (197.51 seconds)
Cbc0010I After 1585 nodes, 49 on tree, 1456.5386 best solution, best possible 1358.8186 (198.23 seconds)
Cbc0010I After 1594 nodes, 47 on tree, 1456.5386 best solution, best possible 1358.8186 (198.94 seconds)
Cbc0010I After 1599 nodes, 49 on tree, 1456.5386 best solution, best possible 1358.8186 (199.65 seconds)
Cbc0010I After 1611 nodes, 45 on tree, 1456.5386 best solution, best possible 1358.8186 (200.37 seconds)
Cbc0010I After 1618 nodes, 44 on tree, 1456.5386 best solution, best possible 1358.8186 (201.08 seconds)
Cbc0010I After 1626 nodes, 42 on tree, 1456.5386 best solution, best possible 1358.8186 (201.84 seconds)
Cbc0010I After 1633 nodes, 41 on tree, 1456.5386 best solution, best possible 1358.8186 (202.55 seconds)
Cbc0010I After 1641 nodes, 42 on tree, 1456.5386 best solution, best possible 1358.8186 (203.37 seconds)
Cbc0010I After 1653 nodes, 36 on tree, 1456.5386 best solution, best possible 1358.8186 (204.08 seconds)
Cbc0010I After 1663 nodes, 31 on tree, 1456.5386 best solution, best possible 1358.8186 (204.92 seconds)
Cbc0010I After 1671 nodes, 30 on tree, 1456.5386 best solution, best possible 1358.8186 (205.66 seconds)
Cbc0010I After 1679 nodes, 29 on tree, 1456.5386 best solution, best possible 1358.8186 (206.56 seconds)
Cbc0010I After 1686 nodes, 32 on tree, 1456.5386 best solution, best possible 1358.8186 (207.31 seconds)
Cbc0010I After 1696 nodes, 29 on tree, 1456.5386 best solution, best possible 1358.8186 (208.06 seconds)
Cbc0010I After 1709 nodes, 24 on tree, 1456.5386 best solution, best possible 1358.8186 (208.91 seconds)
Cbc0010I After 1724 nodes, 17 on tree, 1456.5386 best solution, best possible 1358.8186 (209.63 seconds)
Cbc0010I After 1732 nodes, 14 on tree, 1456.5386 best solution, best possible 1358.8186 (210.37 seconds)
Cbc0010I After 1747 nodes, 8 on tree, 1456.5386 best solution, best possible 1358.8186 (211.07 seconds)
Cbc0010I After 1754 nodes, 8 on tree, 1456.5386 best solution, best possible 1358.8186 (211.79 seconds)
Cbc0010I After 1759 nodes, 8 on tree, 1456.5386 best solution, best possible 1358.8186 (212.52 seconds)
Cbc0010I After 1764 nodes, 10 on tree, 1456.5386 best solution, best possible 1358.8186 (213.29 seconds)
Cbc0010I After 1773 nodes, 9 on tree, 1456.5386 best solution, best possible 1358.8186 (214.04 seconds)
Cbc0010I After 1785 nodes, 5 on tree, 1456.5386 best solution, best possible 1358.8186 (214.75 seconds)
Cbc0010I After 1787 nodes, 6 on tree, 1456.5386 best solution, best possible 1358.8186 (215.45 seconds)
Cbc0010I After 1790 nodes, 8 on tree, 1456.5386 best solution, best possible 1358.8186 (216.21 seconds)
Cbc0010I After 1793 nodes, 9 on tree, 1456.5386 best solution, best possible 1358.8186 (216.97 seconds)
Cbc0010I After 1802 nodes, 7 on tree, 1456.5386 best solution, best possible 1358.8186 (217.72 seconds)
Cbc0010I After 1810 nodes, 6 on tree, 1456.5386 best solution, best possible 1358.8186 (218.43 seconds)
Cbc0010I After 1815 nodes, 6 on tree, 1456.5386 best solution, best possible 1358.8186 (219.13 seconds)
Cbc0010I After 1821 nodes, 4 on tree, 1456.5386 best solution, best possible 1358.8186 (220.27 seconds)
Cbc0010I After 1829 nodes, 4 on tree, 1456.5386 best solution, best possible 1358.8186 (221.08 seconds)
Cbc0010I After 1833 nodes, 7 on tree, 1456.5386 best solution, best possible 1358.8186 (221.80 seconds)
Cbc0010I After 1839 nodes, 10 on tree, 1456.5386 best solution, best possible 1358.8186 (222.54 seconds)
Cbc0010I After 1850 nodes, 9 on tree, 1456.5386 best solution, best possible 1358.8186 (223.34 seconds)
Cbc0010I After 1863 nodes, 9 on tree, 1456.5386 best solution, best possible 1358.8186 (224.17 seconds)
Cbc0010I After 1872 nodes, 8 on tree, 1456.5386 best solution, best possible 1358.8186 (224.89 seconds)
Cbc0010I After 1883 nodes, 12 on tree, 1456.5386 best solution, best possible 1358.8186 (225.65 seconds)
Cbc0010I After 1894 nodes, 5 on tree, 1456.5386 best solution, best possible 1358.8186 (226.41 seconds)
Cbc0010I After 1901 nodes, 8 on tree, 1456.5386 best solution, best possible 1358.8186 (227.11 seconds)
Cbc0010I After 1909 nodes, 6 on tree, 1456.5386 best solution, best possible 1358.8186 (227.82 seconds)
Cbc0010I After 1915 nodes, 6 on tree, 1456.5386 best solution, best possible 1358.8186 (228.64 seconds)
Cbc0010I After 1921 nodes, 3 on tree, 1456.5386 best solution, best possible 1358.8186 (229.39 seconds)
Cbc0010I After 1926 nodes, 1 on tree, 1456.5386 best solution, best possible 1372.8415 (230.73 seconds)
Cbc0010I After 1929 nodes, 4 on tree, 1456.5386 best solution, best possible 1372.8415 (231.53 seconds)
Cbc0010I After 1933 nodes, 8 on tree, 1456.5386 best solution, best possible 1372.8415 (232.24 seconds)
Cbc0010I After 1939 nodes, 9 on tree, 1456.5386 best solution, best possible 1372.8415 (232.98 seconds)
Cbc0010I After 1946 nodes, 12 on tree, 1456.5386 best solution, best possible 1372.8415 (233.70 seconds)
Cbc0010I After 1953 nodes, 15 on tree, 1456.5386 best solution, best possible 1372.8415 (234.42 seconds)
Cbc0010I After 1961 nodes, 16 on tree, 1456.5386 best solution, best possible 1372.8415 (235.16 seconds)
Cbc0010I After 1971 nodes, 21 on tree, 1456.5386 best solution, best possible 1372.8415 (235.91 seconds)
Cbc0010I After 1983 nodes, 18 on tree, 1456.5386 best solution, best possible 1372.8415 (236.65 seconds)
Cbc0010I After 1990 nodes, 21 on tree, 1456.5386 best solution, best possible 1372.8415 (237.41 seconds)
Cbc0010I After 2002 nodes, 21 on tree, 1456.5386 best solution, best possible 1372.8415 (238.44 seconds)
Cbc0010I After 2011 nodes, 20 on tree, 1456.5386 best solution, best possible 1372.8415 (239.17 seconds)
Cbc0010I After 2017 nodes, 21 on tree, 1456.5386 best solution, best possible 1372.8415 (239.96 seconds)
Cbc0010I After 2025 nodes, 19 on tree, 1456.5386 best solution, best possible 1372.8415 (240.81 seconds)
Cbc0010I After 2033 nodes, 19 on tree, 1456.5386 best solution, best possible 1372.8415 (241.74 seconds)
Cbc0010I After 2042 nodes, 18 on tree, 1456.5386 best solution, best possible 1372.8415 (242.55 seconds)
Cbc0010I After 2049 nodes, 16 on tree, 1456.5386 best solution, best possible 1372.8415 (243.31 seconds)
Cbc0010I After 2055 nodes, 17 on tree, 1456.5386 best solutModell wird erstellt...
Suche Startlösung...
None
Suche optimale Lösung...
OptimizationStatus.OPTIMAL
C:\Users\Philip\Documents\programmieren\python\bwinf41-2\weniger-krumme-touren\beispiele\random\70\700.txt
Lösung gefunden!
ion, best possible 1372.8415 (244.14 seconds)
Cbc0010I After 2064 nodes, 19 on tree, 1456.5386 best solution, best possible 1372.8415 (245.02 seconds)
Cbc0010I After 2072 nodes, 23 on tree, 1456.5386 best solution, best possible 1372.8415 (245.76 seconds)
Cbc0010I After 2083 nodes, 18 on tree, 1456.5386 best solution, best possible 1372.8415 (246.47 seconds)
Cbc0010I After 2093 nodes, 22 on tree, 1456.5386 best solution, best possible 1372.8415 (247.19 seconds)
Cbc0010I After 2100 nodes, 24 on tree, 1456.5386 best solution, best possible 1372.8415 (247.94 seconds)
Cbc0010I After 2109 nodes, 25 on tree, 1456.5386 best solution, best possible 1372.8415 (248.64 seconds)
Cbc0010I After 2119 nodes, 25 on tree, 1456.5386 best solution, best possible 1372.8415 (249.37 seconds)
Cbc0010I After 2123 nodes, 26 on tree, 1456.5386 best solution, best possible 1372.8415 (250.22 seconds)
Cbc0010I After 2130 nodes, 25 on tree, 1456.5386 best solution, best possible 1372.8415 (250.94 seconds)
Cbc0010I After 2133 nodes, 27 on tree, 1456.5386 best solution, best possible 1372.8415 (251.65 seconds)
Cbc0010I After 2137 nodes, 28 on tree, 1456.5386 best solution, best possible 1372.8415 (252.38 seconds)
Cbc0010I After 2143 nodes, 28 on tree, 1456.5386 best solution, best possible 1372.8415 (253.14 seconds)
Cbc0010I After 2151 nodes, 29 on tree, 1456.5386 best solution, best possible 1372.8415 (253.90 seconds)
Cbc0004I Integer solution of 1454.3229 found after 106209 iterations and 2152 nodes (254.10 seconds)
Cbc0010I After 2160 nodes, 22 on tree, 1454.3229 best solution, best possible 1372.8415 (254.61 seconds)
Cbc0010I After 2167 nodes, 22 on tree, 1454.3229 best solution, best possible 1372.8415 (255.34 seconds)
Cbc0004I Integer solution of 1445.9649 found after 107578 iterations and 2174 nodes (256.19 seconds)
Cbc0010I After 2174 nodes, 10 on tree, 1445.9649 best solution, best possible 1372.8415 (256.20 seconds)
Cbc0010I After 2182 nodes, 9 on tree, 1445.9649 best solution, best possible 1372.8415 (256.95 seconds)
Cbc0010I After 2186 nodes, 11 on tree, 1445.9649 best solution, best possible 1372.8415 (257.67 seconds)
Cbc0010I After 2193 nodes, 10 on tree, 1445.9649 best solution, best possible 1372.8415 (258.39 seconds)
Cbc0010I After 2204 nodes, 4 on tree, 1445.9649 best solution, best possible 1372.8415 (259.13 seconds)
Cbc0010I After 2208 nodes, 6 on tree, 1445.9649 best solution, best possible 1372.8415 (259.91 seconds)
Cbc0010I After 2218 nodes, 6 on tree, 1445.9649 best solution, best possible 1372.8415 (260.76 seconds)
Cbc0010I After 2227 nodes, 4 on tree, 1445.9649 best solution, best possible 1372.8415 (261.46 seconds)
Cbc0010I After 2231 nodes, 5 on tree, 1445.9649 best solution, best possible 1372.8415 (262.34 seconds)
Cbc0010I After 2242 nodes, 2 on tree, 1445.9649 best solution, best possible 1372.8415 (263.18 seconds)
Cbc0010I After 2246 nodes, 6 on tree, 1445.9649 best solution, best possible 1372.8415 (264.11 seconds)
Cbc0010I After 2256 nodes, 8 on tree, 1445.9649 best solution, best possible 1372.8415 (264.91 seconds)
Cbc0010I After 2264 nodes, 6 on tree, 1445.9649 best solution, best possible 1372.8415 (265.66 seconds)
Cbc0010I After 2273 nodes, 3 on tree, 1445.9649 best solution, best possible 1372.8415 (266.40 seconds)
Cbc0010I After 2277 nodes, 6 on tree, 1445.9649 best solution, best possible 1372.8415 (267.23 seconds)
Cbc0010I After 2286 nodes, 1 on tree, 1445.9649 best solution, best possible 1372.8415 (268.03 seconds)
Cbc0010I After 2289 nodes, 1 on tree, 1445.9649 best solution, best possible 1432.7306 (268.86 seconds)
Cbc0001I Search completed - best objective 1445.96491655038, took 113658 iterations and 2295 nodes (269.35 seconds)
Cbc0032I Strong branching done 10368 times (123464 iterations), fathomed 233 nodes and fixed 899 variables
Cbc0035I Maximum depth 37, 211223 variables fixed on reduced cost
Total time (CPU seconds):       269.53   (Wallclock seconds):       269.53

